





100
52 585
772 165
668 996
358 140
981 42
150 325
701 170
573 640
995 583
389 186
908 620
678 921
444 117
891 151
240 18
112 344
219 47
200 333
137 683
974 403
431 248
75 314
269 377
677 795
212 656
704 518
397 708
705 112
639 501
36 219
364 173
518 152
783 145
230 165
205 808
566 867
891 561
250 837
386 483
435 926
680 428
560 328
170 807
115 905
765 856
963 841
102 662
398 108
213 729
557 825
623 368
394 3
214 684
814 724
811 463
178 291
882 703
790 358
242 117
558 599
190 339
457 926
975 164
971 796
5 560
158 637
674 765
499 929
276 229
190 961
836 694
20 799
332 193
513 509
163 242
469 144
306 12
578 539
44 758
242 456
685 301
288 80
172 809
706 430
990 710
79 691
282 962
853 22
572 515
124 839
12 196
62 146
541 843
668 899
892 936
994 984
816 522
487 788
462 715
620 937
